read_data	${fname}.dat
read_data	PE_nc64_cl64_NP99L.dat
  1 = max bonds/atom
  orthogonal box = (0 0 0) to (186.111 186.111 186.111)
  1 by 1 by 1 MPI processor grid
  4195 atoms
  4032 bonds
  2 = max # of 1-2 neighbors
  2 = max # of 1-3 neighbors
  4 = max # of 1-4 neighbors
  6 = max # of special neighbors
#read_data	restart.${fname}.dat

# Dreiding potential information
neighbor	0.4 bin
neigh_modify	every 10 one 10000
bond_style      class2
bond_coeff	1 4.7 5.765  0.0 2.882

#####equi1_pair.py data
include pairfile
pair_style hybrid lj/cut 19.32 soft 10.0
pair_coeff * * lj/cut 1.130000 4.700000 9.870000

pair_coeff 1 1 lj/cut 1.130000 4.700000 5.280000
pair_coeff 2 2 lj/cut 1.130000 4.700000 5.280000
pair_coeff 3 3 lj/cut 1.130000 4.700000 5.280000
pair_coeff 4 4 lj/cut 1.130000 4.700000 5.280000
pair_coeff 5 5 lj/cut 1.130000 4.700000 5.280000
pair_coeff 6 6 lj/cut 1.130000 4.700000 5.280000
pair_coeff 7 7 lj/cut 1.130000 4.700000 5.280000
pair_coeff 8 8 lj/cut 1.130000 4.700000 5.280000
pair_coeff 9 9 lj/cut 1.130000 4.700000 5.280000
pair_coeff 10 10 lj/cut 1.130000 4.700000 5.280000
pair_coeff 11 11 lj/cut 1.130000 4.700000 5.280000
pair_coeff 12 12 lj/cut 1.130000 4.700000 5.280000
pair_coeff 13 13 lj/cut 1.130000 4.700000 5.280000
pair_coeff 14 14 lj/cut 1.130000 4.700000 5.280000
pair_coeff 15 15 lj/cut 1.130000 4.700000 5.280000
pair_coeff 16 16 lj/cut 1.130000 4.700000 5.280000
pair_coeff 17 17 lj/cut 1.130000 4.700000 5.280000
pair_coeff 18 18 lj/cut 1.130000 4.700000 5.280000
pair_coeff 19 19 lj/cut 1.130000 4.700000 5.280000
pair_coeff 20 20 lj/cut 1.130000 4.700000 5.280000
pair_coeff 21 21 lj/cut 1.130000 4.700000 5.280000
pair_coeff 22 22 lj/cut 1.130000 4.700000 5.280000
pair_coeff 23 23 lj/cut 1.130000 4.700000 5.280000
pair_coeff 24 24 lj/cut 1.130000 4.700000 5.280000
pair_coeff 25 25 lj/cut 1.130000 4.700000 5.280000
pair_coeff 26 26 lj/cut 1.130000 4.700000 5.280000
pair_coeff 27 27 lj/cut 1.130000 4.700000 5.280000
pair_coeff 28 28 lj/cut 1.130000 4.700000 5.280000
pair_coeff 29 29 lj/cut 1.130000 4.700000 5.280000
pair_coeff 30 30 lj/cut 1.130000 4.700000 5.280000
pair_coeff 31 31 lj/cut 1.130000 4.700000 5.280000
pair_coeff 32 32 lj/cut 1.130000 4.700000 5.280000
pair_coeff 33 33 lj/cut 1.130000 4.700000 5.280000
pair_coeff 34 34 lj/cut 1.130000 4.700000 5.280000
pair_coeff 35 35 lj/cut 1.130000 4.700000 5.280000
pair_coeff 36 36 lj/cut 1.130000 4.700000 5.280000
pair_coeff 37 37 lj/cut 1.130000 4.700000 5.280000
pair_coeff 38 38 lj/cut 1.130000 4.700000 5.280000
pair_coeff 39 39 lj/cut 1.130000 4.700000 5.280000
pair_coeff 40 40 lj/cut 1.130000 4.700000 5.280000
pair_coeff 41 41 lj/cut 1.130000 4.700000 5.280000
pair_coeff 42 42 lj/cut 1.130000 4.700000 5.280000
pair_coeff 43 43 lj/cut 1.130000 4.700000 5.280000
pair_coeff 44 44 lj/cut 1.130000 4.700000 5.280000
pair_coeff 45 45 lj/cut 1.130000 4.700000 5.280000
pair_coeff 46 46 lj/cut 1.130000 4.700000 5.280000
pair_coeff 47 47 lj/cut 1.130000 4.700000 5.280000
pair_coeff 48 48 lj/cut 1.130000 4.700000 5.280000
pair_coeff 49 49 lj/cut 1.130000 4.700000 5.280000
pair_coeff 50 50 lj/cut 1.130000 4.700000 5.280000
pair_coeff 51 51 lj/cut 1.130000 4.700000 5.280000
pair_coeff 52 52 lj/cut 1.130000 4.700000 5.280000
pair_coeff 53 53 lj/cut 1.130000 4.700000 5.280000
pair_coeff 54 54 lj/cut 1.130000 4.700000 5.280000
pair_coeff 55 55 lj/cut 1.130000 4.700000 5.280000
pair_coeff 56 56 lj/cut 1.130000 4.700000 5.280000
pair_coeff 57 57 lj/cut 1.130000 4.700000 5.280000
pair_coeff 58 58 lj/cut 1.130000 4.700000 5.280000
pair_coeff 59 59 lj/cut 1.130000 4.700000 5.280000
pair_coeff 60 60 lj/cut 1.130000 4.700000 5.280000
pair_coeff 61 61 lj/cut 1.130000 4.700000 5.280000
pair_coeff 62 62 lj/cut 1.130000 4.700000 5.280000
pair_coeff 63 63 lj/cut 1.130000 4.700000 5.280000
pair_coeff 64 64 lj/cut 1.130000 4.700000 5.280000

pair_coeff 65 65 lj/cut 0.282500 4.600000 10.000000
pair_coeff * 65 soft 0.5
fix PNP all adapt 1 pair soft a * 65 v_prefactor
####equi1_pair.py complete

#####################################################
# Equilibration Stage 1 (Langevin dynamics at 600 K)
velocity 	all create ${temperature} 1231
velocity 	all create 600 1231
fix		1st all nve/limit 0.05
fix		2nd all langevin ${temperature} ${temperature} 10.0 904297
fix		2nd all langevin 600 ${temperature} 10.0 904297
fix		2nd all langevin 600 600 10.0 904297
thermo_style	custom step temp press pe ke etotal epair ebond eangle edihed emol vol # NVT?
thermo          100
timestep	5
dump		1 all dcd  1000 ${simname}.dcd
dump		1 all dcd  1000 minimization.dcd
run		50000
WARNING: Inconsistent image flags (domain.cpp:594)
Memory usage per processor = 6.63507 Mbytes
Step Temp Press PotEng KinEng TotEng E_pair E_bond E_angle E_dihed E_mol Volume 
       0          600    259.64432   -428.51231    7500.9104    7072.3981   -428.51232 3.0162629e-06            0            0 3.0162629e-06    6446331.4 
     100    581.94609    121.21315    463.10245    7275.2091    7738.3115   -1507.6849    1970.7874            0            0    1970.7874    6446331.4 
     200    595.80545    85.223667     660.1323    7448.4722    8108.6045   -1513.5785    2173.7108            0            0    2173.7108    6446331.4 
     300    597.01271    68.100111    863.06369    7463.5648    8326.6285   -1392.0726    2255.1363            0            0    2255.1363    6446331.4 
     400    592.59775    56.032819    896.74497    7408.3711    8305.1161   -1387.3064    2284.0514            0            0    2284.0514    6446331.4 
     500    591.47127    55.235444    888.37931    7394.2883    8282.6676   -1232.9713    2121.3506            0            0    2121.3506    6446331.4 
     600    599.31907    40.192716    974.64446    7492.3978    8467.0422   -1241.5441    2216.1886            0            0    2216.1886    6446331.4 
     700     597.8506    34.558756    952.19805    7474.0397    8426.2377   -1203.6654    2155.8634            0            0    2155.8634    6446331.4 
     800    591.40306    33.945875    1014.3334    7393.4357    8407.7691   -1186.2947     2200.628            0            0     2200.628    6446331.4 
     900    596.27958    34.077883    996.34411    7454.3995    8450.7437    -1178.555    2174.8991            0            0    2174.8991    6446331.4 
    1000    592.83661    30.308987    990.99009    7411.3572    8402.3473   -1144.7247    2135.7148            0            0    2135.7148    6446331.4 
    1100     594.3716    30.748776    1119.3775    7430.5469    8549.9244   -1094.7644    2214.1419            0            0    2214.1419    6446331.4 
    1200    594.92101    33.537092    1004.0661    7437.4153    8441.4814   -1121.1814    2125.2474            0            0    2125.2474    6446331.4 
    1300    592.08315    25.133201    1092.9139    7401.9378    8494.8517   -1116.7482    2209.6621            0            0    2209.6621    6446331.4 
    1400    583.15804    20.885585    1119.8969    7290.3603    8410.2572   -1072.8494    2192.7464            0            0    2192.7464    6446331.4 
    1500    582.49098    24.937733     1234.574    7282.0211    8516.5951   -1070.2508    2304.8248            0            0    2304.8248    6446331.4 
    1600    601.84793    22.504783    1119.3916    7524.0124    8643.4039   -1063.2487    2182.6403            0            0    2182.6403    6446331.4 
    1700    597.55291    17.841411    1211.6059    7470.3181     8681.924   -1043.6743    2255.2802            0            0    2255.2802    6446331.4 
    1800    594.51159    22.689189    1203.0196    7432.2969    8635.3165   -1050.0907    2253.1103            0            0    2253.1103    6446331.4 
    1900     592.5311    15.578527    1199.8055    7407.5378    8607.3433   -1028.0166    2227.8221            0            0    2227.8221    6446331.4 
    2000    600.14906    14.796319    1206.7267    7502.7739    8709.5006   -1029.5928    2236.3196            0            0    2236.3196    6446331.4 
    2100    594.81637    13.996584    1196.7039    7436.1071     8632.811   -1006.3853    2203.0892            0            0    2203.0892    6446331.4 
    2200      590.619    15.917208     1233.693    7383.6336    8617.3267   -985.76916    2219.4622            0            0    2219.4622    6446331.4 
    2300    597.91562    11.136415    1279.7772    7474.8524    8754.6296   -1011.8136    2291.5907            0            0    2291.5907    6446331.4 
    2400     601.6854    15.785361    1283.0418    7521.9805    8805.0223   -982.42857    2265.4704            0            0    2265.4704    6446331.4 
    2500    596.34159    8.6883184    1249.8965    7455.1748    8705.0713   -983.28035    2233.1769            0            0    2233.1769    6446331.4 
    2600    588.98815    14.188127    1321.9366    7363.2456    8685.1823   -996.24461    2318.1813            0            0    2318.1813    6446331.4 
    2700    601.18995     11.50015    1296.6032    7515.7866    8812.3898   -999.62192    2296.2251            0            0    2296.2251    6446331.4 
    2800    589.26688    11.518526    1307.6018    7366.7301    8674.3319   -933.78088    2241.3827            0            0    2241.3827    6446331.4 
    2900    597.46297    18.280108    1126.5562    7469.1937    8595.7499   -973.22401    2099.7802            0            0    2099.7802    6446331.4 
    3000    591.22927    10.368759    1255.6182    7391.2629    8646.8811   -991.63575    2247.2539            0            0    2247.2539    6446331.4 
    3100    596.47473    9.2422791    1265.4515    7456.8392    8722.2907    -942.2677    2207.7192            0            0    2207.7192    6446331.4 
    3200    607.16707    15.028908    1147.8546    7590.5097    8738.3643   -948.89709    2096.7517            0            0    2096.7517    6446331.4 
    3300    583.05414    11.888349    1250.1682    7289.0615    8539.2297   -967.55133    2217.7195            0            0    2217.7195    6446331.4 
    3400    593.78786     14.26336     1265.186    7423.2493    8688.4353   -966.06581    2231.2518            0            0    2231.2518    6446331.4 
    3500    586.71583    15.057531    1161.4915    7334.8381    8496.3296   -966.43998    2127.9314            0            0    2127.9314    6446331.4 
    3600    590.38612    12.434942    1171.0979    7380.7223    8551.8202    -928.7399    2099.8378            0            0    2099.8378    6446331.4 
    3700    587.26115    11.016411    1208.2679    7341.6555    8549.9234    -951.9017    2160.1696            0            0    2160.1696    6446331.4 
    3800    595.49072    9.9368234    1229.7775    7444.5375     8674.315   -961.42969    2191.2072            0            0    2191.2072    6446331.4 
    3900    593.54696    11.124417    1264.1908    7420.2376    8684.4284   -932.45876    2196.6496            0            0    2196.6496    6446331.4 
    4000    597.74504    10.410812    1284.4739      7472.72    8757.1938   -972.50988    2256.9838            0            0    2256.9838    6446331.4 
    4100    601.51868    15.673669    1218.8748    7519.8963    8738.7711    -957.8794    2176.7542            0            0    2176.7542    6446331.4 
    4200    595.40277    8.9788338    1255.9475     7443.438    8699.3856    -950.4904    2206.4379            0            0    2206.4379    6446331.4 
    4300     601.6513    9.2444596    1372.5537    7521.5542    8894.1079   -963.65879    2336.2125            0            0    2336.2125    6446331.4 
    4400    593.23159    5.2475162    1248.8011     7416.295    8665.0961   -948.77866    2197.5798            0            0    2197.5798    6446331.4 
    4500    595.81069    15.350992    1173.6562    7448.5377     8622.194   -930.21266    2103.8689            0            0    2103.8689    6446331.4 
    4600    604.10981    5.2925423    1358.4425    7552.2893    8910.7318   -930.77227    2289.2148            0            0    2289.2148    6446331.4 
    4700    596.72088    3.2981268    1266.7451    7459.9164    8726.6615   -958.69971    2225.4448            0            0    2225.4448    6446331.4 
    4800    599.84639    10.670897    1191.1458    7498.9901    8690.1359   -984.68943    2175.8352            0            0    2175.8352    6446331.4 
    4900    599.75173    8.2765455    1245.8059    7497.8067    8743.6125   -971.54185    2217.3477            0            0    2217.3477    6446331.4 
    5000    593.60263    12.544533    1203.6598    7420.9336    8624.5934   -961.45193    2165.1118            0            0    2165.1118    6446331.4 
    5100    593.21302    15.597201    1327.2599    7416.0629    8743.3228   -926.07508    2253.3349            0            0    2253.3349    6446331.4 
    5200     586.2367    6.1923885    1189.2034    7328.8483    8518.0516   -943.56566     2132.769            0            0     2132.769    6446331.4 
    5300    600.40402   0.11064092    1147.1691    7505.9613    8653.1304   -981.36101    2128.5301            0            0    2128.5301    6446331.4 
    5400    600.92225    7.4233166    1276.7929    7512.4399    8789.2328   -956.04467    2232.8376            0            0    2232.8376    6446331.4 
    5500    611.99059     11.53122    1210.7841     7650.811    8861.5951   -979.64758    2190.4317            0            0    2190.4317    6446331.4 
    5600    592.05277     4.547692      1350.14     7401.558     8751.698   -951.94304    2302.0831            0            0    2302.0831    6446331.4 
    5700    591.40463    8.9739127    1189.5954    7393.4553    8583.0507   -918.74027    2108.3357            0            0    2108.3357    6446331.4 
    5800     586.6438    11.134257    1186.1374    7333.9376     8520.075   -910.39759     2096.535            0            0     2096.535    6446331.4 
    5900    598.38513    8.8811618    1149.7876    7480.7221    8630.5097   -932.59006    2082.3777            0            0    2082.3777    6446331.4 
    6000    606.04396    4.3066608    1233.0451    7576.4691    8809.5142   -960.29295    2193.3381            0            0    2193.3381    6446331.4 
    6100    608.82692    6.2249737    1281.9055    7611.2603    8893.1658    -906.3377    2188.2432            0            0    2188.2432    6446331.4 
    6200      602.906    9.7796204    1210.2803    7537.2398    8747.5201   -945.09164     2155.372            0            0     2155.372    6446331.4 
    6300    594.38609     4.697538    1193.7163     7430.728    8624.4443    -948.1155    2141.8318            0            0    2141.8318    6446331.4 
    6400    589.21843   -1.8578864    1277.1641    7366.1245    8643.2885   -954.42231    2231.5864            0            0    2231.5864    6446331.4 
    6500    594.32648   -1.2963516    1260.8074    7429.9828    8690.7903   -957.50576    2218.3132            0            0    2218.3132    6446331.4 
    6600    586.55882     14.28291    1245.1551    7332.8753    8578.0304   -954.94631    2200.1014            0            0    2200.1014    6446331.4 
    6700    607.92678    11.561086    1218.1323    7600.0072    8818.1395   -965.27676     2183.409            0            0     2183.409    6446331.4 
    6800     597.9847    7.0286617    1270.1052    7475.7161    8745.8213   -964.15993    2234.2651            0            0    2234.2651    6446331.4 
    6900    595.47577    3.5700383    1268.7465    7444.3507    8713.0971   -944.69106    2213.4375            0            0    2213.4375    6446331.4 
    7000    596.03169    8.4261015    1259.0315    7451.3005     8710.332   -938.56057    2197.5921            0            0    2197.5921    6446331.4 
    7100    605.43675    10.994643    1279.2265     7568.878    8848.1045   -945.57032    2224.7968            0            0    2224.7968    6446331.4 
    7200    594.57959    15.708004    1282.7038    7433.1471    8715.8509   -935.64565    2218.3494            0            0    2218.3494    6446331.4 
    7300    592.92751    22.099391    1269.4096    7412.4936    8681.9031   -931.45251    2200.8621            0            0    2200.8621    6446331.4 
    7400    597.99393    16.074893    1227.5067    7475.8315    8703.3382   -951.55679    2179.0635            0            0    2179.0635    6446331.4 
    7500    598.22269    7.7205132    1296.1504    7478.6914    8774.8418   -962.12036    2258.2708            0            0    2258.2708    6446331.4 
    7600    595.86628    6.2476018      1311.45    7449.2326    8760.6826   -944.00225    2255.4522            0            0    2255.4522    6446331.4 
    7700    600.09803    7.1478378    1292.7929    7502.1359    8794.9287   -978.95088    2271.7437            0            0    2271.7437    6446331.4 
    7800     599.1418    6.5801376    1192.7474    7490.1816     8682.929    -990.6125    2183.3599            0            0    2183.3599    6446331.4 
    7900    613.34177    21.470753    1230.6619    7667.7028    8898.3648   -975.64904     2206.311            0            0     2206.311    6446331.4 
    8000    591.03597    8.1228918     1267.265    7388.8464    8656.1114    -966.6997    2233.9647            0            0    2233.9647    6446331.4 
    8100    603.56923    9.0177266    1280.0456    7545.5312    8825.5768   -984.12981    2264.1754            0            0    2264.1754    6446331.4 
    8200    593.23109    8.4566122    1074.9235    7416.2887    8491.2122   -1010.2618    2085.1853            0            0    2085.1853    6446331.4 
    8300    597.50857    13.049256    1160.3655    7469.7637    8630.1293   -998.30647     2158.672            0            0     2158.672    6446331.4 
    8400    592.55878    9.9798172    1143.3169    7407.8839    8551.2008   -1008.6964    2152.0133            0            0    2152.0133    6446331.4 
    8500    584.95766    6.4042779    1261.8244    7312.8583    8574.6828   -1017.3986     2279.223            0            0     2279.223    6446331.4 
    8600    594.67217    6.5440149    1131.6536    7434.3044     8565.958   -1049.2185    2180.8721            0            0    2180.8721    6446331.4 
    8700    594.97012    11.723472    1193.6726    7438.0293    8631.7019   -1045.3934     2239.066            0            0     2239.066    6446331.4 
    8800    597.14598    11.908543    1230.9382    7465.2308     8696.169   -1041.1989    2272.1371            0            0    2272.1371    6446331.4 
    8900    602.88831    15.183512    1222.4391    7537.0187    8759.4577   -1041.5929     2264.032            0            0     2264.032    6446331.4 
    9000    586.20885    10.428896    1214.3065    7328.5001    8542.8066   -1046.0229    2260.3294            0            0    2260.3294    6446331.4 
    9100    601.78737    11.724563    1312.5188    7523.2552     8835.774   -1027.8269    2340.3457            0            0    2340.3457    6446331.4 
    9200    597.13227    18.270534    1222.7874    7465.0594    8687.8468   -1038.6263    2261.4136            0            0    2261.4136    6446331.4 
    9300     587.7035    15.683891    1251.0385    7347.1855    8598.2241   -1010.9273    2261.9659            0            0    2261.9659    6446331.4 
    9400    599.15686    11.619663    1121.6828    7490.3698    8612.0526   -1039.1216    2160.8043            0            0    2160.8043    6446331.4 
    9500    602.71056    14.393269     1146.145    7534.7966    8680.9416   -1000.4439    2146.5889            0            0    2146.5889    6446331.4 
    9600    599.98091    15.211119    1171.4103    7500.6717     8672.082    -1036.808    2208.2182            0            0    2208.2182    6446331.4 
    9700    586.89849     12.29637     1167.594    7337.1217    8504.7157   -1050.4468    2218.0408            0            0    2218.0408    6446331.4 
    9800    603.71571    8.2214021    1123.0499    7547.3624    8670.4122   -1056.8799    2179.9297            0            0    2179.9297    6446331.4 
    9900    596.28527    5.2999839    1179.1429    7454.4707    8633.6136   -1034.9693    2214.1123            0            0    2214.1123    6446331.4 
   10000    597.14873    12.272829    1178.9816    7465.2652    8644.2468   -1050.3241    2229.3057            0            0    2229.3057    6446331.4 
   10100    614.90427    9.6443084    1087.0147    7687.2364    8774.2511   -1054.2822    2141.2968            0            0    2141.2968    6446331.4 
   10200    591.52656    9.0058739    1137.5557    7394.9796    8532.5352   -1043.3593    2180.9149            0            0    2180.9149    6446331.4 
   10300    591.67059    12.069086      1173.05    7396.7802    8569.8302    -1054.205    2227.2551            0            0    2227.2551    6446331.4 
   10400    584.61004     11.58232    1126.3689    7308.5126    8434.8815   -1059.8989    2186.2678            0            0    2186.2678    6446331.4 
   10500    603.25409    18.850529    1196.4236    7541.5915    8738.0151   -1017.9924     2214.416            0            0     2214.416    6446331.4 
   10600    598.27198    18.848365    1201.6779    7479.3075    8680.9854   -1024.0944    2225.7722            0            0    2225.7722    6446331.4 
   10700    602.58437    14.096362     1116.995     7533.219     8650.214   -1041.4945    2158.4895            0            0    2158.4895    6446331.4 
   10800    593.63226    8.6664803    1157.0487     7421.304    8578.3527   -1049.6725    2206.7212            0            0    2206.7212    6446331.4 
   10900    604.68132    7.9615973    1092.6531     7559.434    8652.0871   -1107.1286    2199.7817            0            0    2199.7817    6446331.4 
   11000     599.4192    8.3597223     1154.075    7493.6496    8647.7246   -1105.1997    2259.2747            0            0    2259.2747    6446331.4 
   11100    598.40256    1.2990264    1096.1032      7480.94    8577.0432   -1113.8976    2210.0008            0            0    2210.0008    6446331.4 
   11200    589.11904    9.2952077    1121.2451    7364.8819     8486.127   -1082.7006    2203.9457            0            0    2203.9457    6446331.4 
   11300    604.61533    8.8266878    1000.3822     7558.609    8558.9912   -1116.7673    2117.1495            0            0    2117.1495    6446331.4 
   11400    605.20812    6.1529616    1096.8089    7566.0198    8662.8287   -1111.4355    2208.2444            0            0    2208.2444    6446331.4 
   11500    593.97577    5.7348841    1048.6147    7425.5984    8474.2131   -1118.2243     2166.839            0            0     2166.839    6446331.4 
   11600    599.19492     13.05189    1061.9757    7490.8457    8552.8214   -1143.5003     2205.476            0            0     2205.476    6446331.4 
   11700    593.00151    9.5628798    1069.6708    7413.4186    8483.0894   -1154.6173    2224.2881            0            0    2224.2881    6446331.4 
   11800    600.51084    8.3162982    1006.7299    7507.2967    8514.0266    -1169.547    2176.2769            0            0    2176.2769    6446331.4 
   11900    589.27006     3.350543    989.97024    7366.7698    8356.7401   -1172.4306    2162.4008            0            0    2162.4008    6446331.4 
   12000    592.96243    4.7704484     1049.322    7412.9301    8462.2521   -1153.3468    2202.6689            0            0    2202.6689    6446331.4 
   12100     588.3427    4.3237075    965.04956    7355.1764     8320.226   -1146.1774     2111.227            0            0     2111.227    6446331.4 
   12200    598.49596     5.302005    1121.1798    7482.1076    8603.2874   -1115.9258    2237.1056            0            0    2237.1056    6446331.4 
   12300    597.77283    2.9874326     1091.161    7473.0674    8564.2285   -1171.3092    2262.4703            0            0    2262.4703    6446331.4 
   12400    588.24027    1.7240346    1077.1884    7353.8959    8431.0842   -1125.9706    2203.1589            0            0    2203.1589    6446331.4 
   12500    603.94474   0.95083243    1055.1186    7550.2257    8605.3442   -1168.3195     2223.438            0            0     2223.438    6446331.4 
   12600    597.09705    8.5245904    998.66802    7464.6192    8463.2872   -1150.0151    2148.6831            0            0    2148.6831    6446331.4 
   12700     600.2676     10.41868    1015.3189    7504.2559    8519.5747    -1178.556    2193.8748            0            0    2193.8748    6446331.4 
   12800    595.95371    7.2730513    978.02904    7450.3256    8428.3546   -1190.3589     2168.388            0            0     2168.388    6446331.4 
   12900    595.28397    1.8437273    1041.8121    7441.9529     8483.765   -1166.5087    2208.3208            0            0    2208.3208    6446331.4 
   13000    593.83302   -1.7045068    972.98694    7423.8138    8396.8007   -1176.9201     2149.907            0            0     2149.907    6446331.4 
   13100    595.32111     15.85251    925.60578    7442.4172    8368.0229   -1177.5632     2103.169            0            0     2103.169    6446331.4 
   13200    603.68011    10.773961    972.36036    7546.9173    8519.2777   -1214.0371    2186.3975            0            0    2186.3975    6446331.4 
   13300    586.32946    5.5978643    1037.4244    7330.0079    8367.4324   -1210.7719    2248.1963            0            0    2248.1963    6446331.4 
   13400     599.1121    1.6181201    995.03441    7489.8103    8484.8447   -1218.7144    2213.7488            0            0    2213.7488    6446331.4 
   13500    601.18248    1.8324802    907.05192    7515.6932    8422.7451   -1238.2159    2145.2678            0            0    2145.2678    6446331.4 
   13600    595.54714    8.6281774    1029.7787     7445.243    8475.0217   -1230.4329    2260.2116            0            0    2260.2116    6446331.4 
   13700    604.71665    7.0919376    1077.1785    7559.8757    8637.0542   -1220.8974    2298.0759            0            0    2298.0759    6446331.4 
   13800     601.5239    10.922688    989.57717    7519.9615    8509.5387   -1243.9062    2233.4833            0            0    2233.4833    6446331.4 
   13900    594.30708    3.4798789    932.93553    7429.7402    8362.6758   -1228.6737    2161.6092            0            0    2161.6092    6446331.4 
   14000    602.63357    7.1559834    990.28765    7533.8341    8524.1217   -1270.6581    2260.9458            0            0    2260.9458    6446331.4 
   14100    597.12033    6.6236443    913.64753    7464.9102    8378.5577   -1253.6576    2167.3051            0            0    2167.3051    6446331.4 
   14200    595.89946    13.411368    871.67968    7449.6475    8321.3271   -1288.5444    2160.2241            0            0    2160.2241    6446331.4 
   14300     598.4003    13.799619    898.28918    7480.9117    8379.2009   -1268.5592    2166.8484            0            0    2166.8484    6446331.4 
   14400    599.36687     10.91217    974.27977    7492.9954    8467.2751   -1255.2953     2229.575            0            0     2229.575    6446331.4 
   14500    602.53956    13.449209    869.18682    7532.6587    8401.8455   -1293.7767    2162.9635            0            0    2162.9635    6446331.4 
   14600    590.90404   -1.2256536    865.40874    7387.1971    8252.6058   -1299.9508    2165.3595            0            0    2165.3595    6446331.4 
   14700    595.97151   -4.0788825    894.67759    7450.5482    8345.2258    -1356.647    2251.3246            0            0    2251.3246    6446331.4 
   14800    593.48971    2.6307899    846.11955    7419.5219    8265.6414   -1335.8994     2182.019            0            0     2182.019    6446331.4 
   14900     595.0507    6.2420884    936.20224    7439.0367    8375.2389   -1314.4059    2250.6081            0            0    2250.6081    6446331.4 
   15000      601.878      2.42198    1011.2677    7524.3883    8535.6559   -1311.6903     2322.958            0            0     2322.958    6446331.4 
   15100    589.87143    7.8537773     968.4242    7374.2879    8342.7121   -1314.5743    2282.9985            0            0    2282.9985    6446331.4 
   15200    593.03589     6.812389    954.15073    7413.8485    8367.9992   -1299.1715    2253.3222            0            0    2253.3222    6446331.4 
   15300    589.95234    3.4043479    841.96225    7375.2994    8217.2616   -1331.0592    2173.0215            0            0    2173.0215    6446331.4 
   15400    594.27424    3.4626851    833.35968    7429.3298    8262.6894   -1356.0343     2189.394            0            0     2189.394    6446331.4 
   15500    596.73104    14.882213    875.65597    7460.0435    8335.6995   -1328.0243    2203.6803            0            0    2203.6803    6446331.4 
   15600    596.57805    13.892755    834.77515    7458.1309     8292.906   -1355.0678    2189.8429            0            0    2189.8429    6446331.4 
   15700    611.93359    12.587169    865.11117    7650.0984    8515.2096    -1330.185    2195.2962            0            0    2195.2962    6446331.4 
   15800    593.41796    9.0495982    807.98793    7418.6249    8226.6128     -1328.21     2136.198            0            0     2136.198    6446331.4 
   15900     595.5645    4.6297882    753.61497      7445.46    8199.0749   -1354.6467    2108.2617            0            0    2108.2617    6446331.4 
   16000    603.66629   -6.6939922    914.24684    7546.7447    8460.9915   -1363.9389    2278.1858            0            0    2278.1858    6446331.4 
   16100    599.33987   -6.1324964    806.09961    7492.6577    8298.7573   -1365.8031    2171.9027            0            0    2171.9027    6446331.4 
   16200    600.09123    1.8967519    841.03194    7502.0509    8343.0829   -1364.6025    2205.6344            0            0    2205.6344    6446331.4 
   16300    593.80862    8.0541791    814.13613    7423.5087    8237.6448    -1355.773    2169.9091            0            0    2169.9091    6446331.4 
   16400    593.70081    8.1427382    782.31908     7422.161    8204.4801   -1391.5434    2173.8624            0            0    2173.8624    6446331.4 
   16500    613.50035    13.616966    788.61836    7669.6853    8458.3036    -1389.455    2178.0734            0            0    2178.0734    6446331.4 
   16600    600.49348    4.5332853    854.98246    7507.0797    8362.0621   -1383.2406     2238.223            0            0     2238.223    6446331.4 
   16700     600.0716    11.534613     801.3998    7501.8055    8303.2053    -1376.837    2178.2368            0            0    2178.2368    6446331.4 
   16800    596.59459    3.3596713    819.44416    7458.3376    8277.7817   -1387.9558       2207.4            0            0       2207.4    6446331.4 
   16900     587.2438    3.1874034    890.04003    7341.4385    8231.4785   -1401.8772    2291.9172            0            0    2291.9172    6446331.4 
   17000    603.47511    8.4136612    766.75706    7544.3545    8311.1116   -1342.8432    2109.6003            0            0    2109.6003    6446331.4 
   17100    605.27594    9.7238601    890.28462    7566.8677    8457.1523   -1317.3756    2207.6603            0            0    2207.6603    6446331.4 
   17200    589.78744    9.7535654    849.52875     7373.238    8222.7667   -1360.1632     2209.692            0            0     2209.692    6446331.4 
   17300    598.94191    10.104524    795.58761    7487.6827    8283.2703   -1359.9645    2155.5521            0            0    2155.5521    6446331.4 
   17400     593.2306    2.6693383    819.54519    7416.2827    8235.8279   -1393.6011    2213.1463            0            0    2213.1463    6446331.4 
   17500    600.10576    12.827724    828.92975    7502.2326    8331.1623   -1370.9084    2199.8382            0            0    2199.8382    6446331.4 
   17600    594.35227    15.929685    829.54529    7430.3052    8259.8505   -1347.2617     2176.807            0            0     2176.807    6446331.4 
   17700    599.27735    6.6984896    796.07909    7491.8762    8287.9553   -1377.9467    2174.0258            0            0    2174.0258    6446331.4 
   17800    603.82778    1.8550779    833.37272    7548.7635    8382.1362   -1380.3415    2213.7142            0            0    2213.7142    6446331.4 
   17900    588.12286    3.7998266    872.44875    7352.4282    8224.8769   -1356.2948    2228.7435            0            0    2228.7435    6446331.4 
   18000    599.35807     6.627333    791.12893    7492.8853    8284.0142   -1338.0791     2129.208            0            0     2129.208    6446331.4 
   18100    592.75439    8.0926202    864.74007    7410.3293    8275.0694   -1370.5657    2235.3058            0            0    2235.3058    6446331.4 
   18200    594.16845    13.972973    844.65041    7428.0071    8272.6575   -1370.6074    2215.2578            0            0    2215.2578    6446331.4 
   18300    609.54526    15.650221    732.07484    7620.2406    8352.3155   -1393.3668    2125.4416            0            0    2125.4416    6446331.4 
   18400    586.61672    8.8135663    785.08952    7333.5991    8118.6886   -1398.7835     2183.873            0            0     2183.873    6446331.4 
   18500    601.55334    12.122175     833.0287    7520.3295    8353.3582   -1408.8464    2241.8751            0            0    2241.8751    6446331.4 
   18600    583.97393    2.8346903    808.85225    7300.5602    8109.4124   -1398.4266    2207.2789            0            0    2207.2789    6446331.4 
   18700    591.36771    1.9095305    885.29289    7392.9937    8278.2866   -1400.4375    2285.7304            0            0    2285.7304    6446331.4 
   18800    610.85015    8.8476833    706.17677    7636.5538    8342.7306   -1416.4934    2122.6702            0            0    2122.6702    6446331.4 
   18900    598.45115    12.050181    709.53055    7481.5474     8191.078   -1405.1304     2114.661            0            0     2114.661    6446331.4 
   19000    605.09416    11.232059     748.8706    7564.5952    8313.4658   -1388.1693    2137.0399            0            0    2137.0399    6446331.4 
   19100    595.99693   0.75516102    801.40284     7450.866    8252.2688   -1404.3296    2205.7324            0            0    2205.7324    6446331.4 
   19200    604.34158    6.8986517    736.35868    7555.1868    8291.5454   -1387.6313      2123.99            0            0      2123.99    6446331.4 
   19300    602.69317     12.66165    833.66199    7534.5792    8368.2412   -1383.6194    2217.2814            0            0    2217.2814    6446331.4 
   19400    597.95843    6.7704258    704.37766    7475.3876    8179.7653   -1431.4568    2135.8344            0            0    2135.8344    6446331.4 
   19500    609.44332    8.4717108    728.02505    7618.9662    8346.9913   -1413.3801    2141.4052            0            0    2141.4052    6446331.4 
   19600    595.50444    5.7602397    721.76837    7444.7091    8166.4775   -1416.9369    2138.7053            0            0    2138.7053    6446331.4 
   19700    609.75863    14.174181    764.56732    7622.9081    8387.4754    -1408.766    2173.3333            0            0    2173.3333    6446331.4 
   19800    601.84591    16.736718    662.82011     7523.987    8186.8072   -1431.3897    2094.2098            0            0    2094.2098    6446331.4 
   19900    592.02595    5.0348599    789.74968    7401.2227    8190.9724   -1421.5736    2211.3233            0            0    2211.3233    6446331.4 
   20000    595.59261  -0.19185539    748.14316    7445.8113    8193.9545   -1388.7928     2136.936            0            0     2136.936    6446331.4 
   20100    601.98865     6.449859     741.8949    7525.7716    8267.6665   -1401.6223    2143.5172            0            0    2143.5172    6446331.4 
   20200    595.48059    2.1354564    746.89122    7444.4109    8191.3022   -1401.4756    2148.3668            0            0    2148.3668    6446331.4 
   20300    592.36538   -1.7331364    811.34292    7405.4661     8216.809   -1416.9486    2228.2915            0            0    2228.2915    6446331.4 
   20400    596.09813    5.9127086    829.25013    7452.1311    8281.3812   -1418.4825    2247.7326            0            0    2247.7326    6446331.4 
   20500    601.36306    2.8334912    789.66562    7517.9507    8307.6164   -1414.3448    2204.0104            0            0    2204.0104    6446331.4 
   20600    599.02774   -2.4746337    748.89283    7488.7557    8237.6485   -1448.2029    2197.0957            0            0    2197.0957    6446331.4 
   20700    591.01934    3.0154279    790.43287    7388.6386    8179.0715   -1424.8827    2215.3156            0            0    2215.3156    6446331.4 
   20800     595.1326    2.9191376     757.3798    7440.0605    8197.4403    -1438.575    2195.9548            0            0    2195.9548    6446331.4 
   20900    593.10312     5.842513    727.60999    7414.6889    8142.2989   -1464.8391    2192.4491            0            0    2192.4491    6446331.4 
   21000     597.2239    4.6575779    714.72937     7466.205    8180.9343   -1478.6492    2193.3785            0            0    2193.3785    6446331.4 
   21100    602.07892     10.00287    639.82853    7526.9001    8166.7286   -1457.8234    2097.6519            0            0    2097.6519    6446331.4 
   21200    603.34359    5.6107196    774.69941    7542.7104    8317.4098   -1448.6579    2223.3573            0            0    2223.3573    6446331.4 
   21300    600.54993    9.4139042    692.77369    7507.7853     8200.559   -1461.0506    2153.8243            0            0    2153.8243    6446331.4 
   21400    591.05597    6.0858741    686.26136    7389.0965    8075.3578   -1444.5849    2130.8463            0            0    2130.8463    6446331.4 
   21500    602.60604     9.109356    746.65089    7533.4899    8280.1408   -1463.7621     2210.413            0            0     2210.413    6446331.4 
   21600    593.90173    6.8351627    656.00928    7424.6728    8080.6821   -1459.8311    2115.8403            0            0    2115.8403    6446331.4 
   21700    607.69378    12.218784    765.84831    7597.0944    8362.9427   -1475.9075    2241.7558            0            0    2241.7558    6446331.4 
   21800     597.9951    4.1255286    723.23128    7475.8461    8199.0774   -1465.2512    2188.4825            0            0    2188.4825    6446331.4 
   21900    600.93507    10.481454    721.62361    7512.6002    8234.2238   -1449.8645    2171.4882            0            0    2171.4882    6446331.4 
   22000    592.22875    5.1198132     739.9702     7403.758    8143.7282   -1481.6545    2221.6247            0            0    2221.6247    6446331.4 
   22100    602.83954    7.9841431    663.33856    7536.4089    8199.7475   -1510.8477    2174.1863            0            0    2174.1863    6446331.4 
   22200     596.1963    12.506458    618.51905    7453.3584    8071.8774   -1464.4177    2082.9367            0            0    2082.9367    6446331.4 
   22300    599.16648    11.109642    713.54424    7490.4902    8204.0344   -1435.9569    2149.5011            0            0    2149.5011    6446331.4 
   22400    591.16875    8.1956883    666.68832    7390.5064    8057.1947   -1514.1174    2180.8057            0            0    2180.8057    6446331.4 
   22500     593.2777    4.6924066    816.42536    7416.8715    8233.2968   -1450.1742    2266.5996            0            0    2266.5996    6446331.4 
   22600    587.60129     4.252452    750.96998    7345.9077    8096.8777   -1475.6777    2226.6476            0            0    2226.6476    6446331.4 
   22700    583.51713    5.9230823     735.1399    7294.8496    8029.9895   -1473.9095    2209.0494            0            0    2209.0494    6446331.4 
   22800    607.09945    13.122747    685.04901    7589.6643    8274.7133   -1497.2244    2182.2735            0            0    2182.2735    6446331.4 
   22900    604.30254    11.746241    650.01655    7554.6987    8204.7152   -1465.2978    2115.3143            0            0    2115.3143    6446331.4 
   23000    591.20499    13.641147    665.17662    7390.9595    8056.1361   -1507.2707    2172.4473            0            0    2172.4473    6446331.4 
   23100    597.61705    5.3343099    682.50265    7471.1199    8153.6226   -1513.9452    2196.4479            0            0    2196.4479    6446331.4 
   23200    605.66068    7.1586779    669.26316    7571.6775    8240.9407   -1481.6448     2150.908            0            0     2150.908    6446331.4 
   23300    601.32602    18.483624      677.757    7517.4877    8195.2447   -1499.4066    2177.1636            0            0    2177.1636    6446331.4 
   23400    598.77649    11.138578    754.97956    7485.6147    8240.5943   -1515.2511    2270.2306            0            0    2270.2306    6446331.4 
   23500    594.81193     14.68256    582.60651    7436.0517    8018.6582   -1495.3949    2078.0014            0            0    2078.0014    6446331.4 
   23600    602.43604    13.830901    613.16778    7531.3646    8144.5324   -1496.4332     2109.601            0            0     2109.601    6446331.4 
   23700    599.56971    3.5815704    651.89419    7495.5311    8147.4253   -1524.7763    2176.6705            0            0    2176.6705    6446331.4 
   23800    592.04971    6.7078238    782.41872    7401.5197    8183.9384   -1480.6348    2263.0535            0            0    2263.0535    6446331.4 
   23900    601.96922    10.491522    717.08951    7525.5287    8242.6182   -1479.9588    2197.0483            0            0    2197.0483    6446331.4 
   24000    592.83338    1.6145159    656.99668    7411.3168    8068.3135   -1517.2949    2174.2916            0            0    2174.2916    6446331.4 
   24100    589.23621    4.2570911    649.13172    7366.3467    8015.4784   -1483.5106    2132.6423            0            0    2132.6423    6446331.4 
   24200     594.2536    9.9945799    613.99473    7429.0717    8043.0664    -1531.295    2145.2897            0            0    2145.2897    6446331.4 
   24300    601.32865    4.2194551     778.7198    7517.5206    8296.2404   -1499.0674    2277.7872            0            0    2277.7872    6446331.4 
   24400    593.59331    3.0839654    685.63696    7420.8171     8106.454   -1480.7209    2166.3578            0            0    2166.3578    6446331.4 
   24500    598.06583    4.7946504    570.01872    7476.7304    8046.7491    -1533.153    2103.1717            0            0    2103.1717    6446331.4 
   24600    592.88466    3.4326759    684.54577    7411.9578    8096.5036   -1499.2616    2183.8073            0            0    2183.8073    6446331.4 
   24700     592.9767    5.1092938    623.93137    7413.1085    8037.0399   -1554.0131    2177.9445            0            0    2177.9445    6446331.4 
   24800    588.75467    5.4648482     595.9859    7360.3267    7956.3126   -1527.8055    2123.7914            0            0    2123.7914    6446331.4 
   24900    596.76616    3.6224422    652.79523    7460.4825    8113.2777   -1538.7635    2191.5587            0            0    2191.5587    6446331.4 
   25000    594.41362    2.1024802    568.87718    7431.0722    7999.9494   -1576.3829    2145.2601            0            0    2145.2601    6446331.4 
   25100    597.25826   -1.7744794     665.3704    7466.6344    8132.0048   -1582.8695    2248.2399            0            0    2248.2399    6446331.4 
   25200    591.83138    3.1908403    611.79779    7398.7902     8010.588   -1552.6993    2164.4971            0            0    2164.4971    6446331.4 
   25300    605.02794     6.105012    638.81476    7563.7673     8202.582   -1551.4884    2190.3032            0            0    2190.3032    6446331.4 
   25400     593.7997    5.1108803    634.31278    7423.3973    8057.7101   -1546.3789    2180.6917            0            0    2180.6917    6446331.4 
   25500    595.44012   -3.4088778    573.74912     7443.905    8017.6542   -1561.5203    2135.2694            0            0    2135.2694    6446331.4 
   25600    607.05229    3.7948943    622.71853    7589.0748    8211.7933   -1578.5019    2201.2204            0            0    2201.2204    6446331.4 
   25700     590.1976    2.5822663     638.6365    7378.3655     8017.002   -1567.0176    2205.6541            0            0    2205.6541    6446331.4 
   25800    596.06744   0.90664405    698.38387    7451.7474    8150.1313    -1577.433    2275.8168            0            0    2275.8168    6446331.4 
   25900    603.68057     3.209282    599.54362    7546.9232    8146.4668   -1579.8785    2179.4222            0            0    2179.4222    6446331.4 
   26000    600.51643    4.5908407    646.27816    7507.3665    8153.6447   -1587.7817    2234.0599            0            0    2234.0599    6446331.4 
   26100     596.6695    5.7616007    678.48713    7459.2741    8137.7612   -1534.5678    2213.0549            0            0    2213.0549    6446331.4 
   26200    592.69265    4.7536056    521.30137    7409.5575    7930.8589   -1562.6612    2083.9626            0            0    2083.9626    6446331.4 
   26300    591.67584   0.06341689    745.38814    7396.8457    8142.2339   -1561.5864    2306.9745            0            0    2306.9745    6446331.4 
   26400    595.88041     8.004703     591.1896    7449.4093    8040.5989   -1583.9027    2175.0923            0            0    2175.0923    6446331.4 
   26500    600.58531    9.1789297    604.28518    7508.2276    8112.5128   -1632.7256    2237.0107            0            0    2237.0107    6446331.4 
   26600    593.56996    11.673571    600.14063    7420.5252    8020.6658   -1601.2865    2201.4272            0            0    2201.4272    6446331.4 
   26700    602.21519    6.3379062    501.61466    7528.6036    8030.2183   -1631.4678    2133.0824            0            0    2133.0824    6446331.4 
   26800    595.87826    8.7281176    646.99836    7449.3825    8096.3808   -1586.4026    2233.4009            0            0    2233.4009    6446331.4 
   26900    605.36361    6.9465846    625.09876    7567.9637    8193.0625   -1610.0754    2235.1742            0            0    2235.1742    6446331.4 
   27000    592.29408    11.764108    698.65485    7404.5747    8103.2296   -1608.4025    2307.0573            0            0    2307.0573    6446331.4 
   27100    600.76024    6.5982628    625.35482    7510.4146    8135.7694   -1614.0108    2239.3656            0            0    2239.3656    6446331.4 
   27200    596.10588    7.8323312    619.79779     7452.228    8072.0258    -1566.887    2186.6848            0            0    2186.6848    6446331.4 
   27300    595.58787   0.87111429    580.20491    7445.7522    8025.9571   -1594.0222    2174.2271            0            0    2174.2271    6446331.4 
   27400    588.68411    1.8792461    611.19068    7359.4446    7970.6353   -1554.0134    2165.2041            0            0    2165.2041    6446331.4 
   27500    604.12326    3.9881052    567.14575    7552.4574    8119.6031   -1613.9956    2181.1413            0            0    2181.1413    6446331.4 
   27600    599.62675   -1.0835302    604.38045    7496.2442    8100.6246   -1616.2507    2220.6312            0            0    2220.6312    6446331.4 
   27700    597.12898  -0.69425465    545.03396    7465.0183    8010.0522   -1633.7082    2178.7422            0            0    2178.7422    6446331.4 
   27800    594.63445    2.6184617    611.61132    7433.8329    8045.4442   -1628.7532    2240.3645            0            0    2240.3645    6446331.4 
   27900    596.79856  -0.10071466    590.34854    7460.8875    8051.2361   -1604.3759    2194.7245            0            0    2194.7245    6446331.4 
   28000    609.60521    2.3719054    604.93427    7620.9901    8225.9244   -1578.7872    2183.7215            0            0    2183.7215    6446331.4 
   28100    596.10925    10.082957    552.72061    7452.2702    8004.9908   -1597.7433    2150.4639            0            0    2150.4639    6446331.4 
   28200    607.52918    4.8720648    577.73109    7595.0366    8172.7677   -1638.6785    2216.4096            0            0    2216.4096    6446331.4 
   28300    598.53082  -0.80208649    636.83913    7482.5434    8119.3825   -1602.2796    2239.1187            0            0    2239.1187    6446331.4 
   28400    598.78097  -0.14315725    617.20487    7485.6707    8102.8756   -1614.9184    2232.1232            0            0    2232.1232    6446331.4 
   28500    594.88206    6.0930335     668.3259    7436.9284    8105.2543   -1633.0579    2301.3838            0            0    2301.3838    6446331.4 
   28600    598.63535    19.309374    545.90989    7483.8502    8029.7601    -1587.158    2133.0679            0            0    2133.0679    6446331.4 
   28700    606.06598    8.5246997    601.03486    7576.7443    8177.7792   -1594.1011    2195.1359            0            0    2195.1359    6446331.4 
   28800    594.47611    12.380152    585.42072    7431.8534    8017.2741   -1607.5278    2192.9485            0            0    2192.9485    6446331.4 
   28900    607.99974    15.489037    605.07285    7600.9193    8205.9921   -1617.8426    2222.9154            0            0    2222.9154    6446331.4 
   29000    604.95863    6.8964223    580.85679    7562.9008    8143.7576   -1632.7179    2213.5747            0            0    2213.5747    6446331.4 
   29100    604.87018    5.4320974    577.24247     7561.795    8139.0375   -1610.5833    2187.8257            0            0    2187.8257    6446331.4 
   29200    585.96498    4.3534437    600.80766    7325.4513     7926.259   -1639.9014    2240.7091            0            0    2240.7091    6446331.4 
   29300    598.06619   0.94566823    530.81791    7476.7348    8007.5527    -1622.062    2152.8799            0            0    2152.8799    6446331.4 
   29400    587.17759   -2.0929592    550.89248    7340.6109    7891.5034   -1607.3639    2158.2563            0            0    2158.2563    6446331.4 
   29500     596.3081    1.3319057    632.46696     7454.756     8087.223   -1581.4045    2213.8715            0            0    2213.8715    6446331.4 
   29600    597.15959    8.5182032    679.48433     7465.401    8144.8853   -1583.7954    2263.2797            0            0    2263.2797    6446331.4 
   29700    589.81049    1.4876818    582.44118    7373.5261    7955.9672   -1609.8453    2192.2865            0            0    2192.2865    6446331.4 
   29800    592.39791    5.7121017    607.59609    7405.8728    8013.4689   -1587.7968    2195.3929            0            0    2195.3929    6446331.4 
   29900    590.22426    1.7872268    480.64173    7378.6989    7859.3406   -1648.0892     2128.731            0            0     2128.731    6446331.4 
   30000    589.38681   -4.9689816     539.2813    7368.2294    7907.5107   -1646.2374    2185.5187            0            0    2185.5187    6446331.4 
   30100    599.69501   0.53648932    515.38244    7497.0976      8012.48   -1638.4558    2153.8382            0            0    2153.8382    6446331.4 
   30200    603.39786    1.2680162    545.00282    7543.3888    8088.3916   -1602.9813    2147.9841            0            0    2147.9841    6446331.4 
   30300    600.74995    3.9747983    660.09969    7510.2859    8170.3856   -1588.4265    2248.5262            0            0    2248.5262    6446331.4 
   30400    602.26267    7.4988674    561.62596    7529.1972    8090.8231   -1581.9871     2143.613            0            0     2143.613    6446331.4 
   30500    600.24798   -1.3746685    541.06569    7504.0105    8045.0762   -1645.6503     2186.716            0            0     2186.716    6446331.4 
   30600    606.41345    2.9063523    543.89639    7581.0882    8124.9846    -1624.598    2168.4944            0            0    2168.4944    6446331.4 
   30700    577.51698    2.4744946    542.81967    7219.8385    7762.6582   -1620.7594     2163.579            0            0     2163.579    6446331.4 
   30800     600.8721    1.3878965    784.44812     7511.813    8296.2611   -1605.8391    2390.2872            0            0    2390.2872    6446331.4 
   30900    610.72023   0.93854893    640.35788    7634.9296    8275.2875   -1619.6786    2260.0365            0            0    2260.0365    6446331.4 
   31000    598.14642    4.9786897     508.0586    7477.7378    7985.7964   -1640.5582    2148.6168            0            0    2148.6168    6446331.4 
   31100    601.34613   -1.4818917    563.96709    7517.7391    8081.7062   -1638.5992    2202.5663            0            0    2202.5663    6446331.4 
   31200    589.65489   -5.3057282    533.87591    7371.5808    7905.4567   -1614.9588    2148.8347            0            0    2148.8347    6446331.4 
   31300    610.12305     -5.26256    616.42526    7627.4639    8243.8892   -1616.4876    2232.9129            0            0    2232.9129    6446331.4 
   31400    590.18745   -7.3999056    506.17164    7378.2387    7884.4103   -1626.0057    2132.1774            0            0    2132.1774    6446331.4 
   31500    601.78638  -0.38303988    565.03763    7523.2428    8088.2804    -1628.985    2194.0227            0            0    2194.0227    6446331.4 
   31600    598.40288    10.870075    506.03271    7480.9439    7986.9767   -1630.7818    2136.8145            0            0    2136.8145    6446331.4 
   31700    597.33011    4.8664206    514.25314    7467.5328    7981.7859   -1636.9272    2151.1804            0            0    2151.1804    6446331.4 
   31800    607.14916     10.26416      519.272    7590.2858    8109.5578   -1633.2541    2152.5261            0            0    2152.5261    6446331.4 
   31900    605.94168    10.923893    532.29882    7575.1904    8107.4893   -1612.2414    2144.5402            0            0    2144.5402    6446331.4 
   32000    610.14318    2.1839598    454.29555    7627.7155    8082.0111   -1665.6729    2119.9684            0            0    2119.9684    6446331.4 
   32100    607.94901    4.2669826    620.65623    7600.2851    8220.9414     -1665.12    2285.7762            0            0    2285.7762    6446331.4 
   32200    592.62542    1.6143734    599.24879     7408.717    8007.9658    -1655.013    2254.2618            0            0    2254.2618    6446331.4 
   32300    595.00407    9.1145777    424.87343    7438.4538    7863.3272   -1658.3483    2083.2218            0            0    2083.2218    6446331.4 
   32400    596.31913   0.85862991    604.02796    7454.8939    8058.9219   -1640.4131    2244.4411            0            0    2244.4411    6446331.4 
   32500    602.14505  -0.37313722    549.26439    7527.7268    8076.9912   -1662.6764    2211.9408            0            0    2211.9408    6446331.4 
   32600    597.12127  -0.11793177     607.3022    7464.9219    8072.2241   -1646.4368     2253.739            0            0     2253.739    6446331.4 
   32700    591.04235   -1.9847396    496.73836    7388.9262    7885.6645   -1643.8869    2140.6253            0            0    2140.6253    6446331.4 
   32800    604.74827   0.60636401    512.37583     7560.271    8072.6468   -1655.7214    2168.0972            0            0    2168.0972    6446331.4 
   32900    585.17959   0.28369813    530.22765    7315.6327    7845.8604   -1643.6726    2173.9003            0            0    2173.9003    6446331.4 
   33000    598.75126    1.9106227    544.88611    7485.2993    8030.1854   -1626.0895    2170.9756            0            0    2170.9756    6446331.4 
   33100    606.81029   0.57190896    568.43265    7586.0493     8154.482   -1645.1346    2213.5673            0            0    2213.5673    6446331.4 
   33200    615.03548    4.7247802    498.98146    7688.8767    8187.8582   -1694.0497    2193.0312            0            0    2193.0312    6446331.4 
   33300    597.75663    4.9348461    447.98005    7472.8648    7920.8449   -1694.3887    2142.3687            0            0    2142.3687    6446331.4 
   33400    608.04199    9.1475833    393.11939    7601.4475    7994.5669   -1679.4795    2072.5989            0            0    2072.5989    6446331.4 
   33500    604.79227    9.3811112     486.2923     7560.821    8047.1133   -1665.4798    2151.7721            0            0    2151.7721    6446331.4 
   33600    599.06922    9.3659455    401.89924    7489.2742    7891.1735   -1716.6155    2118.5147            0            0    2118.5147    6446331.4 
   33700    595.66943   0.35209098    477.05592    7446.7717    7923.8276   -1703.7175    2180.7734            0            0    2180.7734    6446331.4 
   33800    597.72612    5.0175619    414.44423    7472.4835    7886.9277   -1717.0855    2131.5298            0            0    2131.5298    6446331.4 
   33900    592.15588    6.6991739    569.65744     7402.847    7972.5044   -1676.7839    2246.4414            0            0    2246.4414    6446331.4 
   34000    591.54906    4.7445648    537.66773    7395.2609    7932.9286   -1702.2564    2239.9241            0            0    2239.9241    6446331.4 
   34100    585.75399    9.5689024    446.68514    7322.8136    7769.4988   -1696.8478    2143.5329            0            0    2143.5329    6446331.4 
   34200    592.26204    10.946731    481.41165    7404.1741    7885.5858   -1679.5757    2160.9873            0            0    2160.9873    6446331.4 
   34300    599.22074    4.3264887    493.88959    7491.1685    7985.0581   -1718.2097    2212.0993            0            0    2212.0993    6446331.4 
   34400    597.23747    2.5512284    526.61452    7466.3747    7992.9892   -1691.7968    2218.4113            0            0    2218.4113    6446331.4 
   34500     608.4852    1.7654565    587.79194    7606.9883    8194.7802    -1657.049     2244.841            0            0     2244.841    6446331.4 
   34600    607.03309   -1.2022282    525.12468    7588.8347    8113.9593   -1691.8971    2217.0218            0            0    2217.0218    6446331.4 
   34700    607.16048    3.4951239    444.73971    7590.4273     8035.167   -1693.4541    2138.1938            0            0    2138.1938    6446331.4 
   34800    594.74925    2.6665446     454.7621    7435.2681    7890.0302   -1682.9727    2137.7348            0            0    2137.7348    6446331.4 
   34900    600.14197  -0.95201887    439.02997    7502.6852    7941.7152   -1703.6695    2142.6995            0            0    2142.6995    6446331.4 
   35000    607.19968    -6.666618    600.50784    7590.9173    8191.4251   -1679.8564    2280.3643            0            0    2280.3643    6446331.4 
   35100     604.9511    3.1713845    589.84945    7562.8067    8152.6561   -1695.2323    2285.0818            0            0    2285.0818    6446331.4 
   35200     595.2188    1.2330876    505.43707    7441.1382    7946.5752   -1681.5865    2187.0235            0            0    2187.0235    6446331.4 
   35300    590.43178    2.6786398    537.37956    7381.2931    7918.6727    -1693.746    2231.1256            0            0    2231.1256    6446331.4 
   35400    595.10414   0.37905049    515.38222    7439.7047    7955.0869   -1689.4599    2204.8421            0            0    2204.8421    6446331.4 
   35500    594.52027    -2.983601    587.84127    7432.4055    8020.2468   -1702.0277    2289.8689            0            0    2289.8689    6446331.4 
   35600      604.907 -0.030469659    514.96315    7562.2554    8077.2185    -1701.164    2216.1271            0            0    2216.1271    6446331.4 
   35700    591.69158   0.25227027    467.13239    7397.0425    7864.1749   -1720.4114    2187.5438            0            0    2187.5438    6446331.4 
   35800    594.57785    3.2455721    446.90132    7433.1253    7880.0266   -1714.7637    2161.6651            0            0    2161.6651    6446331.4 
   35900    597.95681    7.5102408    418.45172    7475.3674    7893.8192   -1711.6486    2130.1003            0            0    2130.1003    6446331.4 
   36000    593.60453    10.982343    580.12152    7420.9573    8001.0788   -1659.9152    2240.0368            0            0    2240.0368    6446331.4 
   36100    601.99469    3.7403367    482.91233     7525.847    8008.7594   -1701.9885    2184.9009            0            0    2184.9009    6446331.4 
   36200    606.74937    4.1916217    476.93503    7585.2878    8062.2228   -1729.9265    2206.8615            0            0    2206.8615    6446331.4 
   36300    586.74247     9.027077    491.81829    7335.1711    7826.9894   -1691.1732    2182.9914            0            0    2182.9914    6446331.4 
   36400    599.98942    6.7368798    553.06631    7500.7782    8053.8445   -1666.9316     2219.998            0            0     2219.998    6446331.4 
   36500    595.10858    4.8088854    506.99373    7439.7602    7946.7539   -1685.0373     2192.031            0            0     2192.031    6446331.4 
   36600    602.63646   -5.6267689    469.86288    7533.8702    8003.7331   -1711.1552    2181.0181            0            0    2181.0181    6446331.4 
   36700      591.495  -0.80136841    573.19201     7394.585     7967.777   -1670.3072    2243.4992            0            0    2243.4992    6446331.4 
   36800    599.58177    4.6474572    357.84676    7495.6818    7853.5286   -1731.2121    2089.0588            0            0    2089.0588    6446331.4 
   36900     593.5648    3.9412418    474.09831    7420.4607     7894.559   -1700.5983    2174.6966            0            0    2174.6966    6446331.4 
   37000    596.10252    6.4647222    429.24869     7452.186    7881.4346   -1684.4843    2113.7329            0            0    2113.7329    6446331.4 
   37100    606.65234    2.9151144    477.37721    7584.0748     8061.452   -1717.8018     2195.179            0            0     2195.179    6446331.4 
   37200    593.38475    1.1959846    556.14239    7418.2098    7974.3522   -1706.5871    2262.7295            0            0    2262.7295    6446331.4 
   37300    608.73401    2.0689474    526.83011    7610.0988    8136.9289    -1712.224    2239.0541            0            0    2239.0541    6446331.4 
   37400    595.95589   -3.3865323     472.6265    7450.3529    7922.9794   -1741.0167    2213.6432            0            0    2213.6432    6446331.4 
   37500    597.35995   -4.3031358    498.46459    7467.9058    7966.3703   -1710.1068    2208.5714            0            0    2208.5714    6446331.4 
   37600    600.02983  -0.82915455     438.0721    7501.2833    7939.3554   -1729.7412    2167.8133            0            0    2167.8133    6446331.4 
   37700    585.60616    7.7352258    507.52609    7320.9656    7828.4917   -1730.4323    2237.9584            0            0    2237.9584    6446331.4 
   37800    600.09938    13.643496    443.52942    7502.1528    7945.6822   -1741.6403    2185.1697            0            0    2185.1697    6446331.4 
   37900    602.10927     4.097595    445.57925    7527.2795    7972.8587   -1737.5401    2183.1194            0            0    2183.1194    6446331.4 
   38000    593.68835    8.4349557    443.03075    7422.0052     7865.036      -1727.1    2170.1307            0            0    2170.1307    6446331.4 
   38100    599.30214    9.8907732    384.35223    7492.1861    7876.5384   -1738.4503    2122.8025            0            0    2122.8025    6446331.4 
   38200    582.92924    3.2019327       525.69       7287.5      7813.19   -1719.8913    2245.5813            0            0    2245.5813    6446331.4 
   38300    596.74534  -0.10554635    514.32047    7460.2222    7974.5426   -1717.9038    2232.2242            0            0    2232.2242    6446331.4 
   38400    584.16553    5.3790575    466.71883    7302.9555    7769.6743   -1725.6365    2192.3554            0            0    2192.3554    6446331.4 
   38500    594.55305    5.0494729    445.90682    7432.8153    7878.7221   -1686.8222    2132.7291            0            0    2132.7291    6446331.4 
   38600    590.47418   -1.6192329    436.72987    7381.8232    7818.5531   -1693.4421     2130.172            0            0     2130.172    6446331.4 
   38700    611.34649   -3.1228422    633.00911    7642.7587    8275.7679   -1700.3932    2333.4023            0            0    2333.4023    6446331.4 
   38800    595.79478    -2.463778    479.41126    7448.3388      7927.75   -1693.9522    2173.3634            0            0    2173.3634    6446331.4 
   38900     590.2464    -1.644955    477.28113    7378.9756    7856.2567   -1720.8781    2198.1593            0            0    2198.1593    6446331.4 
   39000    594.42098    7.0791176    424.67256    7431.1641    7855.8367   -1701.9283    2126.6008            0            0    2126.6008    6446331.4 
   39100    605.82996     4.462885    468.82196    7573.7937    8042.6157   -1719.8806    2188.7026            0            0    2188.7026    6446331.4 
   39200    598.46027    1.5438806    416.40015    7481.6614    7898.0616   -1739.2713    2155.6714            0            0    2155.6714    6446331.4 
   39300    589.78168    1.4761722    365.91278    7373.1659    7739.0787   -1717.2189    2083.1317            0            0    2083.1317    6446331.4 
   39400    585.95787    3.5911888    387.78548    7325.3625     7713.148   -1741.5607    2129.3462            0            0    2129.3462    6446331.4 
   39500    601.26621    2.2384431    536.87482    7516.7399    8053.6148   -1701.8829    2238.7577            0            0    2238.7577    6446331.4 
   39600    599.57675    2.5055152    456.57054    7495.6191    7952.1896   -1746.1311    2202.7017            0            0    2202.7017    6446331.4 
   39700    606.70223    14.744621    488.28245    7584.6984    8072.9809   -1732.9357    2221.2181            0            0    2221.2181    6446331.4 
   39800    585.14293    7.4231731    456.14062    7315.1745    7771.3151   -1757.3842    2213.5248            0            0    2213.5248    6446331.4 
   39900    586.05216   -3.4888725    501.61019    7326.5412    7828.1514   -1750.0299    2251.6401            0            0    2251.6401    6446331.4 
   40000    594.11406   -1.9368668    496.42545    7427.3272    7923.7527   -1745.0775     2241.503            0            0     2241.503    6446331.4 
   40100    585.87737   -1.6982092    561.74103    7324.3562    7886.0972   -1750.4029     2312.144            0            0     2312.144    6446331.4 
   40200    590.58289    1.1904962    511.69219    7383.1822    7894.8744   -1754.0877    2265.7799            0            0    2265.7799    6446331.4 
   40300    595.74226   -1.1168258    522.49489    7447.6822    7970.1771   -1762.7139    2285.2088            0            0    2285.2088    6446331.4 
   40400    597.09624   -2.3017823    438.67614     7464.609    7903.2852    -1771.352    2210.0281            0            0    2210.0281    6446331.4 
   40500    598.15097    1.8873764    371.22518    7477.7948      7849.02   -1801.0941    2172.3192            0            0    2172.3192    6446331.4 
   40600    591.79478   -1.2248657    448.35678    7398.3328    7846.6895    -1751.073    2199.4298            0            0    2199.4298    6446331.4 
   40700    595.69543 -0.0029452645    483.92444    7447.0968    7931.0212   -1748.4512    2232.3756            0            0    2232.3756    6446331.4 
   40800    590.23881   -1.7961876    395.97461    7378.8808    7774.8554   -1791.4429    2187.4175            0            0    2187.4175    6446331.4 
   40900    602.36273    2.3046716     485.1886    7530.4482    8015.6368   -1783.0436    2268.2322            0            0    2268.2322    6446331.4 
   41000     608.4269    8.2492925    415.89856    7606.2594     8022.158   -1761.6375     2177.536            0            0     2177.536    6446331.4 
   41100     604.6364   -3.1596953    380.81492    7558.8724    7939.6874     -1809.82    2190.6349            0            0    2190.6349    6446331.4 
   41200    593.66118  -0.52964778      427.541    7421.6655    7849.2065   -1778.2644    2205.8054            0            0    2205.8054    6446331.4 
   41300    592.59479    -5.174135    418.89681    7408.3341    7827.2309    -1808.935    2227.8318            0            0    2227.8318    6446331.4 
   41400    600.24737    4.5348144     424.2774    7504.0029    7928.2803   -1796.3699    2220.6473            0            0    2220.6473    6446331.4 
   41500    604.98612   -1.0203343    405.05363    7563.2444     7968.298   -1792.7424     2197.796            0            0     2197.796    6446331.4 
   41600    600.50783    2.0040738    446.24971    7507.2591    7953.5088   -1771.3146    2217.5643            0            0    2217.5643    6446331.4 
   41700    595.09762    1.9724254    469.59685    7439.6232    7909.2201   -1796.2913    2265.8881            0            0    2265.8881    6446331.4 
   41800    593.72977     4.065521    347.33729     7422.523    7769.8603   -1810.2159    2157.5532            0            0    2157.5532    6446331.4 
   41900    606.19933    5.1982806    357.36513    7578.4114    7935.7765   -1821.2432    2178.6083            0            0    2178.6083    6446331.4 
   42000    591.46439    3.2497482    292.11183    7394.2023    7686.3141   -1792.1064    2084.2182            0            0    2084.2182    6446331.4 
   42100    589.66332   -2.0404479    498.03588    7371.6863    7869.7222   -1779.9969    2278.0328            0            0    2278.0328    6446331.4 
   42200    590.18508    6.4480482    371.33644     7378.209    7749.5454   -1816.6252    2187.9616            0            0    2187.9616    6446331.4 
   42300    590.94376  -0.63538516     417.7368    7387.6937    7805.4305   -1798.5655    2216.3023            0            0    2216.3023    6446331.4 
   42400    598.35774     1.995637    359.37102    7480.3797    7839.7507   -1826.7413    2186.1123            0            0    2186.1123    6446331.4 
   42500    590.47663   -1.3028715    449.32279    7381.8539    7831.1767   -1797.8737    2247.1965            0            0    2247.1965    6446331.4 
   42600    600.53525   -1.3528245    302.20481    7507.6018    7809.8067   -1826.3694    2128.5742            0            0    2128.5742    6446331.4 
   42700    602.73457   -2.2299222    454.42626    7535.0966    7989.5229   -1806.9427     2261.369            0            0     2261.369    6446331.4 
   42800    602.23459    3.9081005     487.9805    7528.8462    8016.8267   -1779.3778    2267.3583            0            0    2267.3583    6446331.4 
   42900    608.71381     2.135079    448.83108    7609.8463    8058.6774   -1827.9974    2276.8285            0            0    2276.8285    6446331.4 
   43000    593.50252   0.33024312    289.49384    7419.6821    7709.1759   -1841.4449    2130.9388            0            0    2130.9388    6446331.4 
   43100    584.96033    7.5622412    282.21119    7312.8917    7595.1029   -1867.1531    2149.3643            0            0    2149.3643    6446331.4 
   43200    618.50125    9.5587969    230.02157    7732.2042    7962.2257   -1879.3029    2109.3244            0            0    2109.3244    6446331.4 
   43300    607.88446 -0.032239828    282.26999    7599.4781    7881.7481   -1885.8099    2168.0799            0            0    2168.0799    6446331.4 
   43400    604.09341   -1.2446032    256.20504    7552.0842    7808.2893   -1896.8638    2153.0689            0            0    2153.0689    6446331.4 
   43500    603.02382   -5.2323068    358.00508    7538.7127    7896.7178   -1889.4928    2247.4978            0            0    2247.4978    6446331.4 
   43600     582.3947    -1.399559    308.04827    7280.8174    7588.8657   -1864.8402    2172.8884            0            0    2172.8884    6446331.4 
   43700    596.92889    7.0304432     311.7767    7462.5169    7774.2936   -1861.5564    2173.3331            0            0    2173.3331    6446331.4 
   43800    600.47087    4.0831676    372.94589     7506.797    7879.7429   -1824.9247    2197.8706            0            0    2197.8706    6446331.4 
   43900     595.7456    3.9276537     364.4284    7447.7239    7812.1523   -1882.4704    2246.8988            0            0    2246.8988    6446331.4 
   44000    596.95605    7.2297605    270.38494    7462.8564    7733.2414   -1872.2318    2142.6167            0            0    2142.6167    6446331.4 
   44100    595.67969     4.631182    358.68351       7446.9    7805.5835   -1839.9136    2198.5972            0            0    2198.5972    6446331.4 
   44200    604.58211    7.3385066    366.75912    7558.1937    7924.9528   -1824.5995    2191.3586            0            0    2191.3586    6446331.4 
   44300    594.56575    3.3092984    306.16467     7432.974    7739.1387   -1821.4151    2127.5797            0            0    2127.5797    6446331.4 
   44400    598.98598    2.5347508    283.13686    7488.2336    7771.3705   -1842.7667    2125.9036            0            0    2125.9036    6446331.4 
   44500    605.52347    8.8758676    289.88729    7569.9622    7859.8494    -1855.737    2145.6242            0            0    2145.6242    6446331.4 
   44600     601.5145    5.7850171    328.49874     7519.844    7848.3427   -1828.9192    2157.4179            0            0    2157.4179    6446331.4 
   44700    594.80705    3.7210834     323.2046    7435.9906    7759.1952    -1871.673    2194.8776            0            0    2194.8776    6446331.4 
   44800    582.04275    1.2887378    363.74727    7276.4176    7640.1648   -1870.6795    2234.4267            0            0    2234.4267    6446331.4 
   44900    600.08698   -2.7570605    372.81318    7501.9978     7874.811   -1859.3819    2232.1951            0            0    2232.1951    6446331.4 
   45000    603.90884    3.3419283    345.81391    7549.7769    7895.5908   -1855.6048    2201.4187            0            0    2201.4187    6446331.4 
   45100    601.41295      5.42834    381.07018    7518.5744    7899.6446   -1856.3356    2237.4058            0            0    2237.4058    6446331.4 
   45200    588.20845    5.0124187    313.42658    7353.4981    7666.9247   -1889.8732    2203.2998            0            0    2203.2998    6446331.4 
   45300    593.49304    1.3731975    333.05433    7419.5635    7752.6179   -1868.4179    2201.4723            0            0    2201.4723    6446331.4 
   45400    601.31807    5.6416032    316.81786    7517.3882    7834.2061   -1874.6592     2191.477            0            0     2191.477    6446331.4 
   45500    614.55518     3.171509    329.67896    7682.8723    8012.5512   -1869.7752    2199.4542            0            0    2199.4542    6446331.4 
   45600     596.7472  -0.85590886    218.85741    7460.2455    7679.1029   -1906.3891    2125.2465            0            0    2125.2465    6446331.4 
   45700    592.12638   0.89283008    355.99281    7402.4783    7758.4711   -1905.4255    2261.4183            0            0    2261.4183    6446331.4 
   45800    595.77955   -3.0688152    362.44553    7448.1484    7810.5939   -1894.6121    2257.0576            0            0    2257.0576    6446331.4 
   45900    598.43202    2.8710348     271.0446    7481.3083    7752.3529   -1906.0022    2177.0468            0            0    2177.0468    6446331.4 
   46000    596.61529    5.3712307    323.88511    7458.5965    7782.4816   -1899.6822    2223.5673            0            0    2223.5673    6446331.4 
   46100    598.22416    7.1552077    304.66198    7478.7097    7783.3717   -1920.0445    2224.7065            0            0    2224.7065    6446331.4 
   46200    608.42495    3.5639004    298.29349    7606.2351    7904.5286     -1908.39    2206.6835            0            0    2206.6835    6446331.4 
   46300    593.94875    1.4849939    245.83443    7425.2606     7671.095    -1916.566    2162.4004            0            0    2162.4004    6446331.4 
   46400    599.13677    10.064586     249.0577    7490.1187    7739.1764   -1906.7881    2155.8458            0            0    2155.8458    6446331.4 
   46500    600.43708    7.0300397     341.4753    7506.3746    7847.8499   -1912.6439    2254.1192            0            0    2254.1192    6446331.4 
   46600    591.12436    3.8693685    263.68454    7389.9514    7653.6359   -1899.9124    2163.5969            0            0    2163.5969    6446331.4 
   46700    599.47764    6.9899371    373.59505    7494.3801    7867.9751   -1872.6822    2246.2773            0            0    2246.2773    6446331.4 
   46800    591.25027    5.5421957    302.49705    7391.5255    7694.0225   -1894.4393    2196.9364            0            0    2196.9364    6446331.4 
   46900    591.89172   0.31424605    231.66515    7399.5447    7631.2098   -1933.8375    2165.5027            0            0    2165.5027    6446331.4 
   47000    596.87943  -0.36134576    273.59994    7461.8985    7735.4984    -1904.268    2177.8679            0            0    2177.8679    6446331.4 
   47100    593.50989    4.1292496    205.47499    7419.7742    7625.2491   -1904.4135    2109.8884            0            0    2109.8884    6446331.4 
   47200    592.55106    2.9448168    405.34855    7407.7874     7813.136   -1893.3242    2298.6727            0            0    2298.6727    6446331.4 
   47300    601.69582    2.1052544    337.73383    7522.1107    7859.8445   -1854.2464    2191.9802            0            0    2191.9802    6446331.4 
   47400    607.93929    9.0162212    277.81951    7600.1636    7877.9831   -1885.9927    2163.8122            0            0    2163.8122    6446331.4 
   47500    592.45093    7.6094379    325.01507    7406.5355    7731.5506   -1889.0632    2214.0783            0            0    2214.0783    6446331.4 
   47600    593.02696    1.9855757    341.02668    7413.7369    7754.7635   -1907.2943     2248.321            0            0     2248.321    6446331.4 
   47700    606.14743    1.2686634    342.79863    7577.7627    7920.5613    -1913.133    2255.9316            0            0    2255.9316    6446331.4 
   47800    594.98706    1.8144263    290.21892     7438.241    7728.4599    -1927.674    2217.8929            0            0    2217.8929    6446331.4 
   47900    592.36066   -4.3742739    271.17069     7405.407    7676.5777   -1936.6304    2207.8011            0            0    2207.8011    6446331.4 
   48000     600.4416   -3.1878493    338.49566     7506.431    7844.9267   -1922.2509    2260.7466            0            0    2260.7466    6446331.4 
   48100    590.87021   -11.532786     402.9086    7386.7742    7789.6828   -1918.5026    2321.4112            0            0    2321.4112    6446331.4 
   48200    593.20675   -4.8605441     230.7945    7415.9844    7646.7789   -1903.4624    2134.2569            0            0    2134.2569    6446331.4 
   48300    592.14138   -7.2918264    339.53505    7402.6658    7742.2008   -1885.9021    2225.4371            0            0    2225.4371    6446331.4 
   48400    600.00347   0.95456296    292.28004    7500.9538    7793.2339   -1911.1966    2203.4767            0            0    2203.4767    6446331.4 
   48500    601.18127   -3.4114237    277.59996    7515.6781    7793.2781   -1935.8553    2213.4552            0            0    2213.4552    6446331.4 
   48600    610.90462   -2.4366271    379.85655    7637.2347    8017.0913   -1876.4738    2256.3303            0            0    2256.3303    6446331.4 
   48700    585.10838   -0.4090886    313.59836    7314.7425    7628.3409   -1902.3394    2215.9378            0            0    2215.9378    6446331.4 
   48800    592.20452   -1.2441247    325.38818    7403.4551    7728.8432    -1912.241    2237.6292            0            0    2237.6292    6446331.4 
   48900    599.84597   0.20687539    339.82652    7498.9847    7838.8113   -1923.2087    2263.0352            0            0    2263.0352    6446331.4 
   49000    598.26692    5.1359926    282.09234    7479.2442    7761.3366   -1896.6954    2178.7877            0            0    2178.7877    6446331.4 
   49100    592.25465    4.8487459    198.19286    7404.0818    7602.2746   -1934.0578    2132.2507            0            0    2132.2507    6446331.4 
   49200    589.23003   -3.2514916    168.64595    7366.2694    7534.9154   -1958.8152    2127.4612            0            0    2127.4612    6446331.4 
   49300    591.38504   -6.1918641    238.36315    7393.2104    7631.5735   -1898.3525    2136.7156            0            0    2136.7156    6446331.4 
   49400    598.37403    7.0713539    254.74194    7480.5833    7735.3253   -1910.9598    2165.7018            0            0    2165.7018    6446331.4 
   49500    600.32605    5.1305576    220.45812    7504.9866    7725.4447   -1918.5495    2139.0076            0            0    2139.0076    6446331.4 
   49600    599.65453    8.1157277    191.07568    7496.5915    7687.6672   -1883.4421    2074.5178            0            0    2074.5178    6446331.4 
   49700    609.24358    2.1543883    285.93342    7616.4692    7902.4026   -1891.6989    2177.6324            0            0    2177.6324    6446331.4 
   49800    603.94953   0.86797367    267.80823    7550.2855    7818.0937   -1927.2315    2195.0397            0            0    2195.0397    6446331.4 
   49900    614.04254    3.9369229     260.3333    7676.4634    7936.7967   -1948.2307     2208.564            0            0     2208.564    6446331.4 
   50000    610.31414    1.3752655    224.80133    7629.8528    7854.6541   -1938.6501    2163.4514            0            0    2163.4514    6446331.4 
Loop time of 75.0698 on 1 procs for 50000 steps with 4195 atoms

Pair  time (%) = 9.48482 (12.6347)
Bond  time (%) = 6.30074 (8.39318)
Neigh time (%) = 13.7777 (18.3532)
Comm  time (%) = 1.4675 (1.95485)
Outpt time (%) = 0.304976 (0.406257)
Other time (%) = 43.7341 (58.2578)

Nlocal:    4195 ave 4195 max 4195 min
Histogram: 1 0 0 0 0 0 0 0 0 0
Nghost:    1348 ave 1348 max 1348 min
Histogram: 1 0 0 0 0 0 0 0 0 0
Neighs:    6217 ave 6217 max 6217 min
Histogram: 1 0 0 0 0 0 0 0 0 0

Total # of neighbors = 6217
Ave neighs/atom = 1.482
Ave special neighs/atom = 5.67533
Neighbor list builds = 5000
Dangerous builds = 5000
unfix 1st
unfix 2nd
write_restart 	restart.${simname}.dat
write_restart 	restart.minimization.dat












